Welcome to the CBC MILP Solver 
Version: 2.10.7 
Build Date: Feb 14 2022 

command line - cbc inputs/new_no_tr/order/triang7_0_down_left_input.lp sec 1800 solve solu solutions/new_no_tr/triang7_0_down_left_input.lp (default strategy 1)
seconds was changed from 1e+100 to 1800
Continuous objective value is 253.196 - 0.18 seconds
Cgl0002I 115 variables fixed
Cgl0003I 0 fixed, 16 tightened bounds, 610 strengthened rows, 0 substitutions
Cgl0003I 0 fixed, 12 tightened bounds, 227 strengthened rows, 0 substitutions
Cgl0003I 0 fixed, 16 tightened bounds, 117 strengthened rows, 0 substitutions
Cgl0003I 0 fixed, 9 tightened bounds, 30 strengthened rows, 0 substitutions
Cgl0003I 0 fixed, 4 tightened bounds, 10 strengthened rows, 0 substitutions
Cgl0003I 0 fixed, 1 tightened bounds, 1 strengthened rows, 0 substitutions
Cgl0003I 0 fixed, 0 tightened bounds, 1 strengthened rows, 0 substitutions
Cgl0004I processed model has 2708 rows, 939 columns (939 integer (910 of which binary)) and 9190 elements
Cutoff increment increased from 1e-05 to 0.9999
Cbc0045I 1 integer variables out of 939 objects (939 integer) have cost of 1 - high priority
Cbc0045I branch on satisfied Y create fake objective Y random cost Y
Cbc0038I Initial state - 515 integers unsatisfied sum - 166.805
Cbc0038I Pass   1: suminf.  104.81177 (516) obj. 363.405 iterations 817
Cbc0038I Pass   2: suminf.   70.36888 (506) obj. 377.006 iterations 474
Cbc0038I Pass   3: suminf.   65.74330 (525) obj. 383.51 iterations 286
Cbc0038I Pass   4: suminf.   64.57782 (535) obj. 376.457 iterations 132
Cbc0038I Pass   5: suminf.   64.38599 (538) obj. 377.36 iterations 179
Cbc0038I Pass   6: suminf.   63.53276 (533) obj. 376.457 iterations 129
Cbc0038I Pass   7: suminf.   67.36119 (571) obj. 377.36 iterations 226
Cbc0038I Pass   8: suminf.   63.97677 (570) obj. 378.489 iterations 206
Cbc0038I Pass   9: suminf.   63.32882 (575) obj. 377.719 iterations 52
Cbc0038I Pass  10: suminf.   64.76551 (568) obj. 374.877 iterations 201
Cbc0038I Pass  11: suminf.   62.87582 (573) obj. 376.609 iterations 179
Cbc0038I Pass  12: suminf.   62.50649 (578) obj. 375.376 iterations 86
Cbc0038I Pass  13: suminf.   62.97604 (586) obj. 376.609 iterations 129
Cbc0038I Pass  14: suminf.   62.33781 (576) obj. 376.609 iterations 73
Cbc0038I Pass  15: suminf.   63.24510 (585) obj. 374.877 iterations 162
Cbc0038I Pass  16: suminf.   62.16494 (571) obj. 374.094 iterations 133
Cbc0038I Pass  17: suminf.   62.59659 (572) obj. 376.609 iterations 161
Cbc0038I Pass  18: suminf.  103.57961 (566) obj. 538.654 iterations 920
Cbc0038I Pass  19: suminf.   72.81987 (587) obj. 542.512 iterations 518
Cbc0038I Pass  20: suminf.   69.09463 (582) obj. 523.844 iterations 165
Cbc0038I Pass  21: suminf.   67.02043 (589) obj. 522.962 iterations 108
Cbc0038I Pass  22: suminf.   67.00555 (591) obj. 516.371 iterations 51
Cbc0038I Pass  23: suminf.   66.80803 (578) obj. 526.468 iterations 260
Cbc0038I Pass  24: suminf.   64.41127 (574) obj. 515.772 iterations 152
Cbc0038I Pass  25: suminf.   65.61153 (558) obj. 521.696 iterations 191
Cbc0038I Pass  26: suminf.   64.39063 (561) obj. 517.706 iterations 61
Cbc0038I Pass  27: suminf.   66.54124 (573) obj. 518.094 iterations 227
Cbc0038I Pass  28: suminf.   64.17799 (571) obj. 521.655 iterations 131
Cbc0038I Pass  29: suminf.   63.45017 (563) obj. 520.06 iterations 119
Cbc0038I Pass  30: suminf.   62.97818 (562) obj. 519.05 iterations 205
Cbc0038I Pass  31: suminf.   62.63318 (556) obj. 519.041 iterations 46
Cbc0038I Pass  32: suminf.   62.58756 (562) obj. 520.256 iterations 39
Cbc0038I Pass  33: suminf.   63.81797 (555) obj. 525.109 iterations 145
Cbc0038I Pass  34: suminf.   62.76134 (553) obj. 522.926 iterations 112
Cbc0038I Pass  35: suminf.   64.67273 (564) obj. 518.604 iterations 211
Cbc0038I Pass  36: suminf.   63.25061 (560) obj. 519.71 iterations 135
Cbc0038I Pass  37: suminf.   63.15198 (572) obj. 519.63 iterations 38
Cbc0038I Pass  38: suminf.   62.67040 (578) obj. 519.186 iterations 41
Cbc0038I Pass  39: suminf.   62.75022 (567) obj. 519.79 iterations 129
Cbc0038I Pass  40: suminf.   62.73137 (567) obj. 520.348 iterations 54
Cbc0038I Pass  41: suminf.   67.97629 (566) obj. 521.13 iterations 234
Cbc0038I Pass  42: suminf.   64.75144 (571) obj. 518.205 iterations 144
Cbc0038I Pass  43: suminf.   64.41493 (564) obj. 517.945 iterations 31
Cbc0038I Pass  44: suminf.   66.56205 (552) obj. 522.415 iterations 165
Cbc0038I Pass  45: suminf.   63.37209 (564) obj. 517.283 iterations 157
Cbc0038I Pass  46: suminf.   63.22879 (553) obj. 518.51 iterations 62
Cbc0038I Pass  47: suminf.   64.57540 (574) obj. 521.386 iterations 133
Cbc0038I Pass  48: suminf.   63.54407 (558) obj. 519.926 iterations 77
Cbc0038I Pass  49: suminf.   63.56017 (562) obj. 518.48 iterations 39
Cbc0038I Pass  50: suminf.   64.32671 (572) obj. 518.346 iterations 180
Cbc0038I Pass  51: suminf.   62.88529 (560) obj. 516.975 iterations 106
Cbc0038I Pass  52: suminf.   63.22879 (553) obj. 518.51 iterations 40
Cbc0038I Pass  53: suminf.   65.80620 (593) obj. 525.834 iterations 221
Cbc0038I Pass  54: suminf.   64.12504 (557) obj. 518.602 iterations 209
Cbc0038I Pass  55: suminf.   63.56017 (562) obj. 518.48 iterations 75
Cbc0038I Pass  56: suminf.   65.59593 (576) obj. 518.029 iterations 179
Cbc0038I Pass  57: suminf.   63.22879 (553) obj. 518.51 iterations 158
Cbc0038I Pass  58: suminf.   65.80620 (593) obj. 525.834 iterations 180
Cbc0038I Pass  59: suminf.   64.12504 (557) obj. 518.602 iterations 205
Cbc0038I Pass  60: suminf.   63.56017 (562) obj. 518.48 iterations 77
Cbc0038I Pass  61: suminf.   64.03982 (580) obj. 517.609 iterations 138
Cbc0038I Pass  62: suminf.   64.05870 (584) obj. 517.562 iterations 6
Cbc0038I Pass  63: suminf.   65.66953 (545) obj. 526.969 iterations 227
Cbc0038I Pass  64: suminf.   64.64318 (566) obj. 520.496 iterations 135
Cbc0038I Pass  65: suminf.   64.19619 (569) obj. 519.706 iterations 30
Cbc0038I Pass  66: suminf.   65.97313 (583) obj. 531.106 iterations 196
Cbc0038I Pass  67: suminf.   64.00796 (569) obj. 524.836 iterations 117
Cbc0038I Pass  68: suminf.   63.65159 (562) obj. 520.319 iterations 89
Cbc0038I Pass  69: suminf.   67.19929 (581) obj. 532.558 iterations 199
Cbc0038I Pass  70: suminf.   66.63005 (565) obj. 519.439 iterations 138
Cbc0038I Pass  71: suminf.   65.88180 (564) obj. 520.871 iterations 32
Cbc0038I Pass  72: suminf.   66.17409 (589) obj. 523.387 iterations 181
Cbc0038I Pass  73: suminf.   63.91770 (594) obj. 520.094 iterations 129
Cbc0038I Pass  74: suminf.   63.92715 (588) obj. 523.272 iterations 65
Cbc0038I Pass  75: suminf.   63.21837 (570) obj. 523.177 iterations 227
Cbc0038I Pass  76: suminf.   62.24590 (555) obj. 534.821 iterations 196
Cbc0038I Pass  77: suminf.   61.62914 (560) obj. 534.876 iterations 64
Cbc0038I Pass  78: suminf.   62.86911 (544) obj. 533.273 iterations 269
Cbc0038I Pass  79: suminf.   62.61217 (546) obj. 535.415 iterations 160
Cbc0038I Pass  80: suminf.   61.71458 (547) obj. 536.451 iterations 111
Cbc0038I Pass  81: suminf.   62.39317 (570) obj. 527.347 iterations 237
Cbc0038I Pass  82: suminf.   63.10354 (585) obj. 529.463 iterations 128
Cbc0038I Pass  83: suminf.   62.42599 (565) obj. 528.524 iterations 70
Cbc0038I Pass  84: suminf.   64.13807 (545) obj. 525.398 iterations 218
Cbc0038I Pass  85: suminf.   62.93738 (534) obj. 522.413 iterations 127
Cbc0038I Pass  86: suminf.   62.30141 (535) obj. 525.749 iterations 69
Cbc0038I Pass  87: suminf.   65.29236 (544) obj. 537.735 iterations 274
Cbc0038I Pass  88: suminf.   62.36101 (551) obj. 526.176 iterations 219
Cbc0038I Pass  89: suminf.   62.11833 (551) obj. 526.014 iterations 42
Cbc0038I Pass  90: suminf.   63.64449 (560) obj. 531.944 iterations 281
Cbc0038I Pass  91: suminf.   64.12150 (552) obj. 528.704 iterations 211
Cbc0038I Pass  92: suminf.   63.06937 (548) obj. 534.629 iterations 100
Cbc0038I Pass  93: suminf.   62.60706 (542) obj. 532.433 iterations 253
Cbc0038I Pass  94: suminf.   62.18002 (553) obj. 532.425 iterations 58
Cbc0038I Pass  95: suminf.   63.80314 (561) obj. 531.525 iterations 234
Cbc0038I Pass  96: suminf.   62.39029 (540) obj. 530.591 iterations 120
Cbc0038I Pass  97: suminf.   61.85878 (553) obj. 531.213 iterations 65
Cbc0038I Pass  98: suminf.   61.34229 (558) obj. 530.99 iterations 49
Cbc0038I Pass  99: suminf.   61.29380 (563) obj. 532.244 iterations 61
Cbc0038I Pass 100: suminf.   84.05962 (542) obj. 582.229 iterations 657
Cbc0038I No solution found this major pass
Cbc0038I Before mini branch and bound, 45 integers at bound fixed and 0 continuous
Cbc0038I Full problem 2708 rows 939 columns, reduced to 2613 rows 893 columns - too large
Cbc0038I Mini branch and bound did not improve solution (2.50 seconds)
Cbc0038I After 2.50 seconds - Feasibility pump exiting - took 2.08 seconds
Cbc0031I 53 added rows had average density of 42.377358
Cbc0013I At root node, 53 cuts changed objective from 253.23759 to 277 in 10 passes
Cbc0014I Cut generator 0 (Probing) - 2 row cuts average 4.0 elements, 0 column cuts (0 active)  in 0.049 seconds - new frequency is -100
Cbc0014I Cut generator 1 (Gomory) - 201 row cuts average 545.3 elements, 0 column cuts (0 active)  in 0.280 seconds - new frequency is 1
Cbc0014I Cut generator 2 (Knapsack) - 0 row cuts average 0.0 elements, 0 column cuts (0 active)  in 0.010 seconds - new frequency is -100
Cbc0014I Cut generator 3 (Clique) - 0 row cuts average 0.0 elements, 0 column cuts (0 active)  in 0.010 seconds - new frequency is -100
Cbc0014I Cut generator 4 (MixedIntegerRounding2) - 0 row cuts average 0.0 elements, 0 column cuts (0 active)  in 0.011 seconds - new frequency is -100
Cbc0014I Cut generator 5 (FlowCover) - 0 row cuts average 0.0 elements, 0 column cuts (0 active)  in 0.008 seconds - new frequency is -100
Cbc0014I Cut generator 6 (TwoMirCuts) - 141 row cuts average 18.8 elements, 0 column cuts (0 active)  in 0.092 seconds - new frequency is 1
Cbc0014I Cut generator 7 (ZeroHalf) - 39 row cuts average 21.2 elements, 0 column cuts (0 active)  in 0.194 seconds - new frequency is 1
Cbc0010I After 0 nodes, 1 on tree, 1e+50 best solution, best possible 277 (6.22 seconds)
Cbc0010I After 100 nodes, 18 on tree, 1e+50 best solution, best possible 285 (45.63 seconds)
Cbc0010I After 200 nodes, 49 on tree, 1e+50 best solution, best possible 285 (75.68 seconds)
Cbc0010I After 300 nodes, 99 on tree, 1e+50 best solution, best possible 285 (112.50 seconds)
Cbc0010I After 400 nodes, 149 on tree, 1e+50 best solution, best possible 285 (156.29 seconds)
Cbc0010I After 500 nodes, 199 on tree, 1e+50 best solution, best possible 285 (182.71 seconds)
Cbc0010I After 600 nodes, 249 on tree, 1e+50 best solution, best possible 285 (208.35 seconds)
Cbc0010I After 700 nodes, 299 on tree, 1e+50 best solution, best possible 285 (236.44 seconds)
Cbc0010I After 800 nodes, 349 on tree, 1e+50 best solution, best possible 285 (261.11 seconds)
Cbc0010I After 900 nodes, 399 on tree, 1e+50 best solution, best possible 285 (282.25 seconds)
Cbc0010I After 1000 nodes, 449 on tree, 1e+50 best solution, best possible 285 (303.97 seconds)
Cbc0016I Integer solution of 737 found by strong branching after 1025058 iterations and 1032 nodes (311.53 seconds)
Cbc0038I Full problem 2708 rows 939 columns, reduced to 1777 rows 521 columns - 76 fixed gives 928, 253 - ok now
Cbc0038I Full problem 2708 rows 939 columns, reduced to 8 rows 3 columns
Cbc0012I Integer solution of 490 found by RINS after 1027018 iterations and 1033 nodes (312.57 seconds)
Cbc0010I After 1100 nodes, 204 on tree, 490 best solution, best possible 287 (328.96 seconds)
Cbc0010I After 1200 nodes, 187 on tree, 490 best solution, best possible 302 (346.23 seconds)
Cbc0038I Full problem 2708 rows 939 columns, reduced to 1788 rows 524 columns - 75 fixed gives 913, 241 - ok now
Cbc0038I Full problem 2708 rows 939 columns, reduced to 6 rows 3 columns
Cbc0038I Full problem 2708 rows 939 columns, reduced to 1778 rows 515 columns - 81 fixed gives 732, 182 - ok now
Cbc0010I After 1300 nodes, 177 on tree, 490 best solution, best possible 312 (367.85 seconds)
Cbc0010I After 1400 nodes, 171 on tree, 490 best solution, best possible 312 (391.33 seconds)
Cbc0038I Full problem 2708 rows 939 columns, reduced to 1546 rows 456 columns - 70 fixed gives 886, 225 - ok now
Cbc0038I Full problem 2708 rows 939 columns, reduced to 0 rows 0 columns
Cbc0012I Integer solution of 466 found by RINS after 1339656 iterations and 1500 nodes (411.31 seconds)
Cbc0010I After 1500 nodes, 143 on tree, 466 best solution, best possible 322 (411.31 seconds)
Cbc0010I After 1600 nodes, 145 on tree, 466 best solution, best possible 322 (432.39 seconds)
Cbc0010I After 1700 nodes, 144 on tree, 466 best solution, best possible 326 (450.74 seconds)
Cbc0038I Full problem 2708 rows 939 columns, reduced to 1415 rows 437 columns - 62 fixed gives 760, 213 - ok now
Cbc0038I Full problem 2708 rows 939 columns, reduced to 1422 rows 417 columns - 68 fixed gives 638, 140 - ok now
Cbc0010I After 1800 nodes, 147 on tree, 466 best solution, best possible 326 (464.87 seconds)
Cbc0038I Full problem 2708 rows 939 columns, reduced to 1590 rows 471 columns - 67 fixed gives 887, 233 - ok now
Cbc0038I Full problem 2708 rows 939 columns, reduced to 0 rows 0 columns
Cbc0010I After 1900 nodes, 154 on tree, 466 best solution, best possible 326 (478.11 seconds)
Cbc0038I Full problem 2708 rows 939 columns, reduced to 1570 rows 475 columns - 64 fixed gives 912, 240 - ok now
Cbc0038I Full problem 2708 rows 939 columns, reduced to 9 rows 4 columns
Cbc0010I After 2000 nodes, 152 on tree, 466 best solution, best possible 326 (490.74 seconds)
Cbc0010I After 2100 nodes, 146 on tree, 466 best solution, best possible 326 (504.85 seconds)
Cbc0010I After 2200 nodes, 152 on tree, 466 best solution, best possible 326 (518.53 seconds)
Cbc0010I After 2300 nodes, 156 on tree, 466 best solution, best possible 326 (528.61 seconds)
Cbc0038I Full problem 2708 rows 939 columns, reduced to 1599 rows 478 columns - 80 fixed gives 812, 207 - ok now
Cbc0038I Full problem 2708 rows 939 columns, reduced to 0 rows 0 columns
Cbc0010I After 2400 nodes, 162 on tree, 466 best solution, best possible 326 (538.96 seconds)
Cbc0010I After 2500 nodes, 163 on tree, 466 best solution, best possible 326 (548.60 seconds)
Cbc0010I After 2600 nodes, 168 on tree, 466 best solution, best possible 326 (560.01 seconds)
Cbc0010I After 2700 nodes, 167 on tree, 466 best solution, best possible 326 (570.21 seconds)
Cbc0010I After 2800 nodes, 168 on tree, 466 best solution, best possible 326 (580.49 seconds)
Cbc0010I After 2900 nodes, 163 on tree, 466 best solution, best possible 326 (593.57 seconds)
Cbc0038I Full problem 2708 rows 939 columns, reduced to 1597 rows 472 columns - 68 fixed gives 906, 242 - ok now
Cbc0038I Full problem 2708 rows 939 columns, reduced to 0 rows 0 columns
Cbc0010I After 3000 nodes, 164 on tree, 466 best solution, best possible 326 (604.43 seconds)
Cbc0010I After 3100 nodes, 162 on tree, 466 best solution, best possible 326 (613.14 seconds)
Cbc0010I After 3200 nodes, 153 on tree, 466 best solution, best possible 326 (622.87 seconds)
Cbc0010I After 3300 nodes, 154 on tree, 466 best solution, best possible 326 (630.63 seconds)
Cbc0010I After 3400 nodes, 157 on tree, 466 best solution, best possible 326 (638.26 seconds)
Cbc0010I After 3500 nodes, 152 on tree, 466 best solution, best possible 326 (645.79 seconds)
Cbc0038I Full problem 2708 rows 939 columns, reduced to 1636 rows 489 columns - 72 fixed gives 820, 202 - ok now
Cbc0038I Full problem 2708 rows 939 columns, reduced to 63 rows 24 columns
Cbc0010I After 3600 nodes, 158 on tree, 466 best solution, best possible 326 (653.28 seconds)
Cbc0010I After 3700 nodes, 164 on tree, 466 best solution, best possible 326 (661.86 seconds)
Cbc0010I After 3800 nodes, 161 on tree, 466 best solution, best possible 326 (669.09 seconds)
Cbc0010I After 3900 nodes, 155 on tree, 466 best solution, best possible 326 (677.79 seconds)
Cbc0010I After 4000 nodes, 158 on tree, 466 best solution, best possible 326 (688.37 seconds)
Cbc0010I After 4100 nodes, 159 on tree, 466 best solution, best possible 326 (696.19 seconds)
Cbc0010I After 4200 nodes, 159 on tree, 466 best solution, best possible 326 (704.77 seconds)
Cbc0010I After 4300 nodes, 160 on tree, 466 best solution, best possible 326 (709.79 seconds)
Cbc0010I After 4400 nodes, 158 on tree, 466 best solution, best possible 326 (717.20 seconds)
Cbc0010I After 4500 nodes, 153 on tree, 466 best solution, best possible 326 (724.67 seconds)
Cbc0010I After 4600 nodes, 148 on tree, 466 best solution, best possible 326 (733.85 seconds)
Cbc0010I After 4700 nodes, 157 on tree, 466 best solution, best possible 326 (741.71 seconds)
Cbc0038I Full problem 2708 rows 939 columns, reduced to 1704 rows 506 columns - 78 fixed gives 844, 217 - ok now
Cbc0010I After 4800 nodes, 144 on tree, 466 best solution, best possible 326 (749.25 seconds)
Cbc0010I After 4900 nodes, 153 on tree, 466 best solution, best possible 326 (755.86 seconds)
Cbc0010I After 5000 nodes, 151 on tree, 466 best solution, best possible 327 (765.15 seconds)
Cbc0010I After 5100 nodes, 180 on tree, 466 best solution, best possible 327 (771.27 seconds)
Cbc0010I After 5200 nodes, 177 on tree, 466 best solution, best possible 327 (776.57 seconds)
Cbc0010I After 5300 nodes, 181 on tree, 466 best solution, best possible 327 (780.49 seconds)
Cbc0010I After 5400 nodes, 177 on tree, 466 best solution, best possible 327 (784.04 seconds)
Cbc0010I After 5500 nodes, 172 on tree, 466 best solution, best possible 327 (788.03 seconds)
Cbc0004I Integer solution of 465 found after 3111653 iterations and 5515 nodes (788.64 seconds)
Cbc0010I After 5600 nodes, 145 on tree, 465 best solution, best possible 327 (794.93 seconds)
Cbc0010I After 5700 nodes, 153 on tree, 465 best solution, best possible 327 (802.80 seconds)
Cbc0010I After 5800 nodes, 151 on tree, 465 best solution, best possible 327 (812.60 seconds)
Cbc0010I After 5900 nodes, 143 on tree, 465 best solution, best possible 327 (821.35 seconds)
Cbc0038I Full problem 2708 rows 939 columns, reduced to 1616 rows 470 columns - 139 fixed gives 345, 82 - ok now
Cbc0038I Full problem 2708 rows 939 columns, reduced to 15 rows 7 columns
Cbc0012I Integer solution of 411 found by RINS after 3315790 iterations and 6000 nodes (828.07 seconds)
Cbc0010I After 6000 nodes, 88 on tree, 411 best solution, best possible 327 (828.07 seconds)
Cbc0010I After 6100 nodes, 91 on tree, 411 best solution, best possible 327 (836.35 seconds)
Cbc0010I After 6200 nodes, 87 on tree, 411 best solution, best possible 327 (845.79 seconds)
Cbc0010I After 6300 nodes, 83 on tree, 411 best solution, best possible 328 (855.40 seconds)
Cbc0010I After 6400 nodes, 85 on tree, 411 best solution, best possible 332 (867.75 seconds)
Cbc0010I After 6500 nodes, 89 on tree, 411 best solution, best possible 332 (878.21 seconds)
Cbc0010I After 6600 nodes, 88 on tree, 411 best solution, best possible 332 (889.61 seconds)
Cbc0010I After 6700 nodes, 89 on tree, 411 best solution, best possible 332 (899.17 seconds)
Cbc0010I After 6800 nodes, 87 on tree, 411 best solution, best possible 332 (906.70 seconds)
Cbc0010I After 6900 nodes, 95 on tree, 411 best solution, best possible 332 (913.64 seconds)
Cbc0010I After 7000 nodes, 95 on tree, 411 best solution, best possible 332 (917.32 seconds)
Cbc0010I After 7100 nodes, 93 on tree, 411 best solution, best possible 332 (921.78 seconds)
Cbc0010I After 7200 nodes, 94 on tree, 411 best solution, best possible 332 (925.88 seconds)
Cbc0038I Full problem 2708 rows 939 columns, reduced to 1462 rows 433 columns - 114 fixed gives 366, 83 - ok now
Cbc0010I After 7300 nodes, 97 on tree, 411 best solution, best possible 332 (929.82 seconds)
Cbc0010I After 7400 nodes, 86 on tree, 411 best solution, best possible 332 (934.54 seconds)
Cbc0010I After 7500 nodes, 93 on tree, 411 best solution, best possible 332 (939.03 seconds)
Cbc0010I After 7600 nodes, 97 on tree, 411 best solution, best possible 332 (943.23 seconds)
Cbc0010I After 7700 nodes, 86 on tree, 411 best solution, best possible 332 (947.81 seconds)
Cbc0010I After 7800 nodes, 83 on tree, 411 best solution, best possible 332 (956.97 seconds)
Cbc0010I After 7900 nodes, 93 on tree, 411 best solution, best possible 332 (968.15 seconds)
Cbc0010I After 8000 nodes, 88 on tree, 411 best solution, best possible 332 (974.83 seconds)
Cbc0010I After 8100 nodes, 86 on tree, 411 best solution, best possible 332 (982.66 seconds)
Cbc0010I After 8200 nodes, 87 on tree, 411 best solution, best possible 332 (991.97 seconds)
Cbc0010I After 8300 nodes, 96 on tree, 411 best solution, best possible 332 (999.42 seconds)
Cbc0010I After 8400 nodes, 99 on tree, 411 best solution, best possible 332 (1006.87 seconds)
Cbc0038I Full problem 2708 rows 939 columns, reduced to 1461 rows 432 columns - 116 fixed gives 525, 140 - ok now
Cbc0010I After 8500 nodes, 90 on tree, 411 best solution, best possible 332 (1013.19 seconds)
Cbc0010I After 8600 nodes, 87 on tree, 411 best solution, best possible 332 (1022.05 seconds)
Cbc0010I After 8700 nodes, 88 on tree, 411 best solution, best possible 332 (1031.25 seconds)
Cbc0010I After 8800 nodes, 90 on tree, 411 best solution, best possible 332 (1040.52 seconds)
Cbc0010I After 8900 nodes, 90 on tree, 411 best solution, best possible 332 (1049.03 seconds)
Cbc0038I Full problem 2708 rows 939 columns, reduced to 1544 rows 456 columns - 143 fixed gives 394, 99 - ok now
Cbc0010I After 9000 nodes, 98 on tree, 411 best solution, best possible 332 (1054.50 seconds)
Cbc0004I Integer solution of 410 found after 4352203 iterations and 9051 nodes (1058.70 seconds)
Cbc0010I After 9100 nodes, 98 on tree, 410 best solution, best possible 332 (1061.33 seconds)
Cbc0010I After 9200 nodes, 88 on tree, 410 best solution, best possible 332 (1068.75 seconds)
Cbc0010I After 9300 nodes, 92 on tree, 410 best solution, best possible 332 (1076.76 seconds)
Cbc0010I After 9400 nodes, 85 on tree, 410 best solution, best possible 332 (1083.80 seconds)
Cbc0010I After 9500 nodes, 87 on tree, 410 best solution, best possible 332 (1091.92 seconds)
Cbc0010I After 9600 nodes, 91 on tree, 410 best solution, best possible 332 (1101.61 seconds)
Cbc0010I After 9700 nodes, 85 on tree, 410 best solution, best possible 332 (1110.79 seconds)
Cbc0010I After 9800 nodes, 85 on tree, 410 best solution, best possible 332 (1119.97 seconds)
Cbc0010I After 9900 nodes, 95 on tree, 410 best solution, best possible 332 (1130.43 seconds)
Cbc0010I After 10000 nodes, 84 on tree, 410 best solution, best possible 332 (1138.24 seconds)
Cbc0010I After 10100 nodes, 86 on tree, 410 best solution, best possible 332 (1151.09 seconds)
Cbc0038I Full problem 2708 rows 939 columns, reduced to 1405 rows 408 columns - 115 fixed gives 337, 84 - ok now
Cbc0038I Full problem 2708 rows 939 columns, reduced to 0 rows 0 columns
Cbc0012I Integer solution of 409 found by RINS after 4814900 iterations and 10200 nodes (1158.17 seconds)
Cbc0010I After 10200 nodes, 92 on tree, 409 best solution, best possible 332 (1158.17 seconds)
Cbc0010I After 10300 nodes, 82 on tree, 409 best solution, best possible 332 (1167.16 seconds)
Cbc0010I After 10400 nodes, 83 on tree, 409 best solution, best possible 334 (1175.49 seconds)
Cbc0010I After 10500 nodes, 80 on tree, 409 best solution, best possible 334 (1184.25 seconds)
Cbc0010I After 10600 nodes, 84 on tree, 409 best solution, best possible 337 (1193.54 seconds)
Cbc0010I After 10700 nodes, 89 on tree, 409 best solution, best possible 337 (1202.00 seconds)
Cbc0038I Full problem 2708 rows 939 columns, reduced to 1773 rows 516 columns - 165 fixed gives 435, 108 - ok now
Cbc0010I After 10800 nodes, 87 on tree, 409 best solution, best possible 337 (1209.63 seconds)
Cbc0010I After 10900 nodes, 86 on tree, 409 best solution, best possible 337 (1218.20 seconds)
Cbc0010I After 11000 nodes, 86 on tree, 409 best solution, best possible 337 (1227.95 seconds)
Cbc0010I After 11100 nodes, 106 on tree, 409 best solution, best possible 337 (1236.32 seconds)
Cbc0010I After 11200 nodes, 109 on tree, 409 best solution, best possible 337 (1243.40 seconds)
Cbc0010I After 11300 nodes, 98 on tree, 409 best solution, best possible 337 (1250.49 seconds)
Cbc0038I Full problem 2708 rows 939 columns, reduced to 1762 rows 509 columns - 174 fixed gives 484, 107 - ok now
Cbc0010I After 11400 nodes, 92 on tree, 409 best solution, best possible 337 (1258.56 seconds)
Cbc0010I After 11500 nodes, 98 on tree, 409 best solution, best possible 337 (1267.75 seconds)
Cbc0010I After 11600 nodes, 93 on tree, 409 best solution, best possible 337 (1278.05 seconds)
Cbc0010I After 11700 nodes, 94 on tree, 409 best solution, best possible 337 (1285.69 seconds)
Cbc0010I After 11800 nodes, 100 on tree, 409 best solution, best possible 337 (1293.66 seconds)
Cbc0010I After 11900 nodes, 95 on tree, 409 best solution, best possible 337 (1300.02 seconds)
Cbc0010I After 12000 nodes, 100 on tree, 409 best solution, best possible 337 (1308.88 seconds)
Cbc0010I After 12100 nodes, 100 on tree, 409 best solution, best possible 337 (1315.31 seconds)
Cbc0010I After 12200 nodes, 82 on tree, 409 best solution, best possible 339 (1324.78 seconds)
Cbc0010I After 12300 nodes, 93 on tree, 409 best solution, best possible 339 (1331.61 seconds)
Cbc0010I After 12400 nodes, 93 on tree, 409 best solution, best possible 339 (1334.92 seconds)
Cbc0010I After 12500 nodes, 91 on tree, 409 best solution, best possible 339 (1339.33 seconds)
Cbc0010I After 12600 nodes, 87 on tree, 409 best solution, best possible 339 (1344.46 seconds)
Cbc0010I After 12700 nodes, 90 on tree, 409 best solution, best possible 339 (1349.10 seconds)
Cbc0010I After 12800 nodes, 90 on tree, 409 best solution, best possible 339 (1353.43 seconds)
Cbc0010I After 12900 nodes, 88 on tree, 409 best solution, best possible 339 (1358.85 seconds)
Cbc0010I After 13000 nodes, 73 on tree, 409 best solution, best possible 339 (1366.90 seconds)
Cbc0010I After 13100 nodes, 107 on tree, 409 best solution, best possible 339 (1375.21 seconds)
Cbc0010I After 13200 nodes, 88 on tree, 409 best solution, best possible 339 (1384.38 seconds)
Cbc0010I After 13300 nodes, 79 on tree, 409 best solution, best possible 339 (1391.98 seconds)
Cbc0010I After 13400 nodes, 97 on tree, 409 best solution, best possible 339 (1398.30 seconds)
Cbc0004I Integer solution of 408 found after 5934921 iterations and 13447 nodes (1400.82 seconds)
Cbc0010I After 13500 nodes, 72 on tree, 408 best solution, best possible 339 (1406.22 seconds)
Cbc0010I After 13600 nodes, 86 on tree, 408 best solution, best possible 339 (1414.53 seconds)
Cbc0010I After 13700 nodes, 80 on tree, 408 best solution, best possible 339 (1422.19 seconds)
Cbc0010I After 13800 nodes, 85 on tree, 408 best solution, best possible 339 (1429.20 seconds)
Cbc0010I After 13900 nodes, 82 on tree, 408 best solution, best possible 339 (1437.62 seconds)
Cbc0010I After 14000 nodes, 79 on tree, 408 best solution, best possible 339 (1445.76 seconds)
Cbc0010I After 14100 nodes, 95 on tree, 408 best solution, best possible 340 (1455.33 seconds)
Cbc0010I After 14200 nodes, 92 on tree, 408 best solution, best possible 340 (1463.28 seconds)
Cbc0010I After 14300 nodes, 93 on tree, 408 best solution, best possible 340 (1474.73 seconds)
Cbc0010I After 14400 nodes, 91 on tree, 408 best solution, best possible 340 (1484.08 seconds)
Cbc0010I After 14500 nodes, 91 on tree, 408 best solution, best possible 340 (1491.94 seconds)
Cbc0010I After 14600 nodes, 94 on tree, 408 best solution, best possible 340 (1500.21 seconds)
Cbc0010I After 14700 nodes, 92 on tree, 408 best solution, best possible 340 (1507.62 seconds)
Cbc0010I After 14800 nodes, 93 on tree, 408 best solution, best possible 340 (1515.35 seconds)
Cbc0010I After 14900 nodes, 84 on tree, 408 best solution, best possible 340 (1522.58 seconds)
Cbc0010I After 15000 nodes, 81 on tree, 408 best solution, best possible 340 (1531.02 seconds)
Cbc0010I After 15100 nodes, 76 on tree, 408 best solution, best possible 341 (1540.35 seconds)
Cbc0010I After 15200 nodes, 76 on tree, 408 best solution, best possible 341 (1547.37 seconds)
Cbc0010I After 15300 nodes, 78 on tree, 408 best solution, best possible 341 (1556.29 seconds)
Cbc0010I After 15400 nodes, 75 on tree, 408 best solution, best possible 341 (1564.83 seconds)
Cbc0010I After 15500 nodes, 73 on tree, 408 best solution, best possible 341 (1570.99 seconds)
Cbc0010I After 15600 nodes, 74 on tree, 408 best solution, best possible 342 (1580.26 seconds)
Cbc0010I After 15700 nodes, 75 on tree, 408 best solution, best possible 342 (1588.41 seconds)
Cbc0010I After 15800 nodes, 82 on tree, 408 best solution, best possible 342 (1598.26 seconds)
Cbc0010I After 15900 nodes, 75 on tree, 408 best solution, best possible 342 (1604.99 seconds)
Cbc0010I After 16000 nodes, 94 on tree, 408 best solution, best possible 342 (1610.50 seconds)
Cbc0010I After 16100 nodes, 91 on tree, 408 best solution, best possible 342 (1616.42 seconds)
Cbc0010I After 16200 nodes, 84 on tree, 408 best solution, best possible 342 (1622.12 seconds)
Cbc0010I After 16300 nodes, 84 on tree, 408 best solution, best possible 342 (1630.65 seconds)
Cbc0010I After 16400 nodes, 79 on tree, 408 best solution, best possible 342 (1639.21 seconds)
Cbc0010I After 16500 nodes, 77 on tree, 408 best solution, best possible 342 (1647.34 seconds)
Cbc0010I After 16600 nodes, 74 on tree, 408 best solution, best possible 342 (1655.18 seconds)
Cbc0010I After 16700 nodes, 73 on tree, 408 best solution, best possible 343 (1663.78 seconds)
Cbc0010I After 16800 nodes, 88 on tree, 408 best solution, best possible 343 (1670.75 seconds)
Cbc0010I After 16900 nodes, 82 on tree, 408 best solution, best possible 343 (1680.05 seconds)
Cbc0010I After 17000 nodes, 70 on tree, 408 best solution, best possible 343 (1689.75 seconds)
Cbc0010I After 17100 nodes, 73 on tree, 408 best solution, best possible 343 (1698.56 seconds)
Cbc0010I After 17200 nodes, 95 on tree, 408 best solution, best possible 343 (1703.07 seconds)
Cbc0010I After 17300 nodes, 86 on tree, 408 best solution, best possible 343 (1707.57 seconds)
Cbc0010I After 17400 nodes, 100 on tree, 408 best solution, best possible 343 (1712.85 seconds)
Cbc0010I After 17500 nodes, 89 on tree, 408 best solution, best possible 343 (1717.52 seconds)
Cbc0010I After 17600 nodes, 109 on tree, 408 best solution, best possible 343 (1725.52 seconds)
Cbc0010I After 17700 nodes, 103 on tree, 408 best solution, best possible 343 (1729.25 seconds)
Cbc0004I Integer solution of 407 found after 7428364 iterations and 17706 nodes (1729.33 seconds)
Cbc0010I After 17800 nodes, 80 on tree, 407 best solution, best possible 343 (1737.96 seconds)
Cbc0010I After 17900 nodes, 77 on tree, 407 best solution, best possible 343 (1746.49 seconds)
Cbc0010I After 18000 nodes, 79 on tree, 407 best solution, best possible 343 (1755.85 seconds)
Cbc0010I After 18100 nodes, 87 on tree, 407 best solution, best possible 343 (1764.99 seconds)
Cbc0010I After 18200 nodes, 85 on tree, 407 best solution, best possible 343 (1772.53 seconds)
Cbc0010I After 18300 nodes, 91 on tree, 407 best solution, best possible 343 (1778.75 seconds)
Cbc0010I After 18400 nodes, 83 on tree, 407 best solution, best possible 343 (1785.20 seconds)
Cbc0010I After 18500 nodes, 76 on tree, 407 best solution, best possible 343 (1793.21 seconds)
Cbc0038I Full problem 2708 rows 939 columns, reduced to 634 rows 174 columns
Cbc0020I Exiting on maximum time
Cbc0005I Partial search - best objective 407 (best possible 343), took 7728211 iterations and 18600 nodes (1799.83 seconds)
Cbc0032I Strong branching done 51728 times (3344865 iterations), fathomed 1584 nodes and fixed 11317 variables
Cbc0035I Maximum depth 489, 0 variables fixed on reduced cost
Cuts at root node changed objective from 253.238 to 277
Probing was tried 10 times and created 2 cuts of which 0 were active after adding rounds of cuts (0.049 seconds)
Gomory was tried 2922 times and created 15221 cuts of which 0 were active after adding rounds of cuts (9.380 seconds)
Knapsack was tried 10 times and created 0 cuts of which 0 were active after adding rounds of cuts (0.010 seconds)
Clique was tried 10 times and created 0 cuts of which 0 were active after adding rounds of cuts (0.010 seconds)
MixedIntegerRounding2 was tried 10 times and created 0 cuts of which 0 were active after adding rounds of cuts (0.011 seconds)
FlowCover was tried 10 times and created 0 cuts of which 0 were active after adding rounds of cuts (0.008 seconds)
TwoMirCuts was tried 2922 times and created 37902 cuts of which 0 were active after adding rounds of cuts (4.131 seconds)
ZeroHalf was tried 2922 times and created 6785 cuts of which 0 were active after adding rounds of cuts (44.846 seconds)

Result - Stopped on time limit

Objective value:                407.00000000
Lower bound:                    343.000
Gap:                            0.19
Enumerated nodes:               18600
Total iterations:               7728211
Time (CPU seconds):             1799.92
Time (Wallclock seconds):       1836.09

Total time (CPU seconds):       1799.93   (Wallclock seconds):       1836.10

